20	11	11	13	14	7	11	15	8	6	7	1	4	9	16	13	18	20	2	1
7	19	13	6	20	7	16	6	3	18	19	16	11	14	20	11	1	2	2	7
1	15	7	3	1	13	1	16	17	19	19	18	20	11	7	14	3	15	8	20
17	6	16	17	16	6	13	4	3	3	18	1	6	16	10	15	19	12	1	10
